nbrTasks = 22;
nbrFixtures = 1;
nbrMachines = 2;
nbrTools = 2;
nbrCycles = 1;
name = ["Take top-button-ring from top-tray","Take ring","Take button","Angle top-button","Take bottom-switch","Take switch","Take top","Take bottom","Put top in fixture","Put bottom in fixture","Put top-button-ring in top-tray","Mount button on top","Mount switch in bottom","Mount ring on top-button, hold","Mount ring on top-button, mount","Fixate top-button-ring","Lift top-button, hold top-button","Lift top-button, support","Turn top-button","Mount top-button-ring on bottom-switch","Put bottom-switch on table","Grab top-button from fixture","Start dummy1","Start dummy2","Goal dummy1","Goal dummy2"];

duration = [5,10,5,5,0,5,5,5,10,10,5,25,15,260,260,15,5,5,20,15,5,5,0,0,0,0];

identicalTasks = [{1},{2},{3},{4},{5},{6},{7},{8},{9},{10},{11},{12},{13},{14},{15},{16},{17},{18},{19},{20},{21},{22}];

cycleNbr = [0,0,0,0,0,0,0,0,0,0,0,0,0,0,0,0,0,0,0,0,0,0];

% Trays
% 1: Ring tray
% 2: Switch tray
% 3: Button tray
% 4: Bottom tray
% 5: top-tray
tray = [5,1,3,0,0,2,5,4,0,0,5,0,0,0,0,0,0,0,0,0,0,0];

% Outputs
% 1: Output
out_put = [0,0,0,0,0,0,0,0,0,0,0,0,0,0,0,0,0,0,0,1,1,0];

% Fixtures
% 1: Front fixture
fixture = [0,0,0,1,1,0,0,0,1,1,0,1,1,0,0,1,0,0,0,0,0,1];

% Components
% 1: Bottom
% 2: Switch
% 3: Top
% 4: Button
% 5: Bottom-Switch
% 6: Ring
% 7: Top-Button
% 8: Top-Button-Ring
% 9: Complete
componentsUsed = [{8},{6},{4},{7},{5},{2},{3},{1},{3},{1},{8},{3,4},{1,2},{7},{6},{8},{7},{7},{7},{8,5},{5},{7}];
nbrComponents = 9;

taskSubComponents = [{7,6},{6},{4},{3,4},{1,2},{2},{3},{1},{3},{1},{7,6},{3,4},{1,2},{3,4},{6},{7,6},{3,4},{3,4},{3,4},{7,6,1,2},{1,2},{3,4}];
subComponents = [{},{},{},{},{1,2},{},{3,4},{7,6},{8,5}];
taskCompleteSubComponents = [{3,4,6,7},{},{},{3,4},{1,2},{},{},{},{},{},{3,4,6,7},{},{},{3,4},{},{3,4,6,7},{3,4},{3,4},{3,4},{1,2,3,4,6,7},{1,2},{3,4}];

componentCreated = [0,0,0,0,0,0,0,0,0,0,0,7,5,8,8,0,0,0,0,9,0,0];

% putting a component
putting = {9,10,11,21};

% mounting a component
mounting = {12,13,14,15,20};

% taking a component
taking = {1,2,3,4,5,6,7,8};

% moving a component
moving = {16,17,18,19};

concurrentTasks = [{17,18},{14,15}];
nbrConcurrentGroups = 2;

order = [|
22,4,17,19,14,16,11|];
maxOrderedLength = 7;
orderedGroups = 1;

timeToTask = [|
0,10,7,8,8,9,0,7,8,8,0,8,8,3,3,9,8,8,3,9,9,8,0,0|
10,0,11,9,9,4,10,3,9,9,10,9,9,7,7,9,9,9,7,8,8,9,0,0|
7,11,0,3,3,8,7,9,3,3,7,3,3,7,7,4,3,3,7,5,5,3,0,0|
8,9,3,0,0,5,8,8,0,0,8,0,0,7,7,1,0,0,7,2,2,0,0,0|
8,9,3,0,0,5,8,8,0,0,8,0,0,7,7,1,0,0,7,2,2,0,0,0|
9,4,8,5,5,0,9,4,5,5,9,5,5,6,6,4,5,5,6,4,4,5,0,0|
0,10,7,8,8,9,0,7,8,8,0,8,8,3,3,9,8,8,3,9,9,8,0,0|
7,3,9,8,8,4,7,0,8,8,7,8,8,4,4,7,8,8,4,7,7,8,0,0|
8,9,3,0,0,5,8,8,0,0,8,0,0,7,7,1,0,0,7,2,2,0,0,0|
8,9,3,0,0,5,8,8,0,0,8,0,0,7,7,1,0,0,7,2,2,0,0,0|
0,10,7,8,8,9,0,7,8,8,0,8,8,3,3,9,8,8,3,9,9,8,0,0|
8,9,3,0,0,5,8,8,0,0,8,0,0,7,7,1,0,0,7,2,2,0,0,0|
8,9,3,0,0,5,8,8,0,0,8,0,0,7,7,1,0,0,7,2,2,0,0,0|
3,7,7,7,7,6,3,4,7,7,3,7,7,0,0,7,7,7,0,8,8,7,0,0|
3,7,7,7,7,6,3,4,7,7,3,7,7,0,0,7,7,7,0,8,8,7,0,0|
9,9,4,1,1,4,9,7,1,1,9,1,1,7,7,0,1,1,7,1,1,1,0,0|
3,7,7,7,7,6,3,4,7,7,3,7,7,0,0,7,7,7,0,8,8,7,0,0|
3,7,7,7,7,6,3,4,7,7,3,7,7,0,0,7,7,7,0,8,8,7,0,0|
3,7,7,7,7,6,3,4,7,7,3,7,7,0,0,7,7,7,0,8,8,7,0,0|
9,8,5,2,2,4,9,7,2,2,9,2,2,8,8,1,2,2,8,0,0,2,0,0|
9,8,5,2,2,4,9,7,2,2,9,2,2,8,8,1,2,2,8,0,0,2,0,0|
8,9,3,0,0,5,8,8,0,0,8,0,0,7,7,1,0,0,7,2,2,0,0,0|
3,7,7,7,7,6,3,4,7,7,3,7,7,0,0,7,7,7,0,8,8,7,0,0|
3,7,7,7,7,6,3,4,7,7,3,7,7,0,0,7,7,7,0,8,8,7,0,0|];
timeToChange = [5,7,10,10,10,8,5,4,10,10,5,10,10,3,3,10,3,3,3,10,10,10,3,3];
timeFromChange = [5,7,10,10,10,8,5,4,10,10,5,10,10,3,3,10,10,10,3,10,10,10,0,0,0,0];
timeMatrix3D = array3d(1..24,1..22,1..2,[0,70,10,72,7,75,8,75,8,75,9,73,0,70,7,69,8,75,8,75,0,70,8,75,8,75,3,68,3,68,9,75,8,75,8,75,3,68,9,75,9,75,8,75,10,72,0,74,11,77,9,77,9,77,4,75,10,72,3,71,9,77,9,77,10,72,9,77,9,77,7,70,7,70,9,77,9,77,9,77,7,70,8,77,8,77,9,77,7,75,11,77,0,80,3,80,3,80,8,78,7,75,9,74,3,80,3,80,7,75,3,80,3,80,7,73,7,73,4,80,3,80,3,80,7,73,5,80,5,80,3,80,8,75,9,77,3,80,0,80,0,80,5,78,8,75,8,74,0,80,0,80,8,75,0,80,0,80,7,73,7,73,1,80,0,80,0,80,7,73,2,80,2,80,0,80,8,75,9,77,3,80,0,80,0,80,5,78,8,75,8,74,0,80,0,80,8,75,0,80,0,80,7,73,7,73,1,80,0,80,0,80,7,73,2,80,2,80,0,80,9,73,4,75,8,78,5,78,5,78,0,76,9,73,4,72,5,78,5,78,9,73,5,78,5,78,6,71,6,71,4,78,5,78,5,78,6,71,4,78,4,78,5,78,0,70,10,72,7,75,8,75,8,75,9,73,0,70,7,69,8,75,8,75,0,70,8,75,8,75,3,68,3,68,9,75,8,75,8,75,3,68,9,75,9,75,8,75,7,69,3,71,9,74,8,74,8,74,4,72,7,69,0,68,8,74,8,74,7,69,8,74,8,74,4,67,4,67,7,74,8,74,8,74,4,67,7,74,7,74,8,74,8,75,9,77,3,80,0,80,0,80,5,78,8,75,8,74,0,80,0,80,8,75,0,80,0,80,7,73,7,73,1,80,0,80,0,80,7,73,2,80,2,80,0,80,8,75,9,77,3,80,0,80,0,80,5,78,8,75,8,74,0,80,0,80,8,75,0,80,0,80,7,73,7,73,1,80,0,80,0,80,7,73,2,80,2,80,0,80,0,70,10,72,7,75,8,75,8,75,9,73,0,70,7,69,8,75,8,75,0,70,8,75,8,75,3,68,3,68,9,75,8,75,8,75,3,68,9,75,9,75,8,75,8,75,9,77,3,80,0,80,0,80,5,78,8,75,8,74,0,80,0,80,8,75,0,80,0,80,7,73,7,73,1,80,0,80,0,80,7,73,2,80,2,80,0,80,8,75,9,77,3,80,0,80,0,80,5,78,8,75,8,74,0,80,0,80,8,75,0,80,0,80,7,73,7,73,1,80,0,80,0,80,7,73,2,80,2,80,0,80,3,68,7,70,7,73,7,73,7,73,6,71,3,68,4,67,7,73,7,73,3,68,7,73,7,73,0,66,0,66,7,73,7,73,7,73,0,66,8,73,8,73,7,73,3,68,7,70,7,73,7,73,7,73,6,71,3,68,4,67,7,73,7,73,3,68,7,73,7,73,0,66,0,66,7,73,7,73,7,73,0,66,8,73,8,73,7,73,9,75,9,77,4,80,1,80,1,80,4,78,9,75,7,74,1,80,1,80,9,75,1,80,1,80,7,73,7,73,0,80,1,80,1,80,7,73,1,80,1,80,1,80,3,68,7,70,7,73,7,73,7,73,6,71,3,68,4,67,7,73,7,73,3,68,7,73,7,73,0,66,0,66,7,73,7,73,7,73,0,66,8,73,8,73,7,73,3,68,7,70,7,73,7,73,7,73,6,71,3,68,4,67,7,73,7,73,3,68,7,73,7,73,0,66,0,66,7,73,7,73,7,73,0,66,8,73,8,73,7,73,3,68,7,70,7,73,7,73,7,73,6,71,3,68,4,67,7,73,7,73,3,68,7,73,7,73,0,66,0,66,7,73,7,73,7,73,0,66,8,73,8,73,7,73,9,75,8,77,5,80,2,80,2,80,4,78,9,75,7,74,2,80,2,80,9,75,2,80,2,80,8,73,8,73,1,80,2,80,2,80,8,73,0,80,0,80,2,80,9,75,8,77,5,80,2,80,2,80,4,78,9,75,7,74,2,80,2,80,9,75,2,80,2,80,8,73,8,73,1,80,2,80,2,80,8,73,0,80,0,80,2,80,8,75,9,77,3,80,0,80,0,80,5,78,8,75,8,74,0,80,0,80,8,75,0,80,0,80,7,73,7,73,1,80,0,80,0,80,7,73,2,80,2,80,0,80,3,68,7,70,7,73,7,73,7,73,6,71,3,68,4,67,7,73,7,73,3,68,7,73,7,73,0,66,0,66,7,73,7,73,7,73,0,66,8,73,8,73,7,73,3,68,7,70,7,73,7,73,7,73,6,71,3,68,4,67,7,73,7,73,3,68,7,73,7,73,0,66,0,66,7,73,7,73,7,73,0,66,8,73,8,73,7,73,]);
timeMatrix3DDepth = 2;

% Tools
% 1: tool1
% 2: tool2
toolNeeded = [1,1,1,1,2,2,1,2,1,2,1,1,2,1,1,1,1,0,1,1,2,1,0,0];

changeToolDuration = [|0,60|
60,0|];
